\ENCODING=ISO-8859-1
\Problem name: Generalized Multiple Knapsack Problem

Maximize
 obj: 100 x_1_1 + 49 x_1_2 + 36 x_1_3 + 15 x_1_4 + 18 x_1_5 + 15 x_1_6
      + 100 x_2_1 + 49 x_2_2 + 36 x_2_3 + 15 x_2_4 + 18 x_2_5 + 15 x_2_6
Subject To
 capacity_1:    15 x_1_1 + 10 x_1_2 + 9 x_1_3 + 4 x_1_4 + 5 x_1_5 + 5 x_1_6
                + y_1_1 + 2 y_1_2 <= 30
 capacity_2:    15 x_2_1 + 10 x_2_2 + 9 x_2_3 + 4 x_2_4 + 5 x_2_5 + 5 x_2_6
                + y_2_1 + 2 y_2_2 <= 12
 max_one_bin_1: y_1_1 + y_2_1 <= 1
 max_one_bin_2: y_1_2 + y_2_2 <= 1
 big_m_1:       x_1_1 + x_1_2 + x_1_4 + x_1_6 - 6 y_1_1 <= 0
 big_m_2:       x_1_3 + x_1_5 - 6 y_1_2 <= 0
 big_m_3:       x_2_1 + x_2_2 + x_2_4 + x_2_6 - 6 y_2_1 <= 0
 big_m_4:       x_2_3 + x_2_5 - 6 y_2_2 <= 0
Bounds
 0 <= x_1_1 <= 1
 0 <= x_1_2 <= 1
 0 <= x_1_3 <= 1
 0 <= x_1_4 <= 1
 0 <= x_1_5 <= 1
 0 <= x_1_6 <= 1
 0 <= x_2_1 <= 1
 0 <= x_2_2 <= 1
 0 <= x_2_3 <= 1
 0 <= x_2_4 <= 1
 0 <= x_2_5 <= 1
 0 <= x_2_6 <= 1
 0 <= y_1_1 <= 1
 0 <= y_1_2 <= 1
 0 <= y_2_1 <= 1
 0 <= y_2_2 <= 1
Binaries
 x_1_1  x_1_2  x_1_3  x_1_4  x_1_5  x_1_6  x_2_1  x_2_2  x_2_3  x_2_4  x_2_5 
 x_2_6  y_1_1  y_1_2  y_2_1  y_2_2 
End
